minizinc/sudoku_problems2/sudoku_p24.dzn
%
% sudoku_p24.dzn
% See http://www.hakank.org/minizinc/sudoku_gcc.mzn
% 
% This problem is problem 24 from
% Gecode's sudoku.cpp
% http://www.gecode.org/gecode-doc-latest/sudoku_8cpp-source.html
% 
x = array2d(1..n, 1..n, [   
% 24
 21, 19,  _, 15, 17,  2,  _,  _,  _, 20,  _,  _,  _,  _,  3,  5,  9,  _, 14,  _, 11,  6,  _, 23,  _,
  _,  _,  _, 14, 22, 21,  1, 15, 12,  _, 25, 19,  _, 10,  _,  8, 18,  _,  _,  _,  _,  2,  _, 20,  4,
  9,  _,  _,  _,  _,  _,  _,  _,  _, 16,  1,  _,  _,  6,  _,  _, 20,  _,  _,  _, 25, 10, 21,  3, 12,
 25,  _,  _,  _, 12,  3,  4,  _,  _,  8,  _, 23,  7,  _,  _,  _,  _,  _,  _,  _,  _,  _, 13, 14,  _,
  _,  _,  _,  7,  _,  _,  _,  _, 14,  _,  _, 18, 24,  _,  _,  _,  1,  2,  4,  _, 19,  5,  _, 15,  _,
  _,  8,  _, 21,  _, 25, 10,  _,  2,  _,  _,  3,  1, 15, 16,  _,  _,  _,  _, 23,  _,  _, 12,  _, 18,
 15,  _, 16,  _,  _,  _,  _,  _,  _, 22,  _,  _,  _,  _,  _,  _,  _,  _,  2,  _, 20,  _,  _,  1,  _,
  _,  _,  _,  _,  2, 20, 17,  6,  _, 19, 24, 13,  _,  _,  9,  _, 21,  _,  _, 16,  _,  _,  _, 11,  _,
  _,  6, 24,  3,  _,  _, 16,  _,  _,  _,  4,  _, 23, 19,  _, 17,  _, 25, 11,  _,  _,  _,  5,  _,  9,
 18,  _,  _,  _, 20,  _,  _, 21, 11, 23,  _,  _,  _, 14,  _,  7,  6,  _, 10,  _,  _,  _,  _,  8,  _,
 13,  _, 11,  _, 21,  _,  _,  _,  _,  _,  _,  8,  _,  3,  _, 12,  _, 20, 22,  _,  6,  _,  _,  _,  _,
  _, 12,  5,  9,  3,  _, 18,  _, 23,  4,  _,  2,  6, 22, 11,  _,  _,  1,  _,  _, 21,  _, 20,  _,  _,
 22,  _, 15,  6,  _,  _,  _,  _,  _,  _, 13, 10,  4,  5,  _,  9,  _,  _, 23,  _, 18,  3,  _,  _, 11,
  _, 16,  _,  _,  7,  9,  _, 17,  _,  _,  _, 20, 19,  _,  _,  _,  4,  _,  _,  _, 10, 23,  _,  2,  _,
  _, 20, 17,  _,  _,  _, 11, 12,  _,  _,  _,  _, 21, 24, 23,  _,  _,  7,  _,  _, 13,  _,  8,  _, 15,
  2,  _,  _, 11,  _,  _,  _, 22, 25,  _,  _,  _,  _,  7, 24, 14, 19,  4,  _,  _,  _,  _,  6,  _,  1,
  _,  4,  _,  _,  _,  _,  2, 24,  _,  9,  _,  _,  _,  _,  _,  _, 23,  _,  _,  1,  _,  _,  _,  _, 16,
  _,  _,  _,  _,  _, 16,  _, 19, 15,  _,  2,  _,  _, 21,  _,  6,  _,  5,  _,  _,  _,  _,  _,  _,  _,
 12,  9, 10,  _, 16,  _,  _,  _, 17,  1,  _,  _,  _, 25, 19,  _,  _, 21,  _,  3,  _,  8,  _, 22, 23,
  _,  _,  _,  1,  _,  _,  _,  _,  _,  _, 22,  _,  _,  _,  _,  _, 24,  _, 25,  8,  _, 20,  3, 19,  _,
  _,  _,  _, 23,  _, 17, 25,  _, 20,  2,  5, 16,  3,  _,  _, 19, 12,  8,  _,  _,  1, 22,  _,  _,  _,
  _,  _,  2, 20,  _, 15, 12,  3,  4,  _, 10,  _,  _,  _,  _, 23,  7,  _,  _,  9,  _, 21, 11,  _,  _,
  _,  _,  6,  5, 13, 19,  _,  _, 21,  _,  _, 12,  _,  4,  _,  1,  _,  _,  _, 11, 16, 15,  _,  _,  _,
 24, 15,  _,  _, 14,  _,  _,  7,  _, 11,  _,  _,  _,  _,  _,  _,  _,  6,  3,  4,  _,  _,  _, 13,  _,
 16,  _,  3,  _,  _, 23,  _, 18,  9, 13,  7, 25, 22,  8, 20, 15,  2,  _,  _,  _,  _,  4,  _,  _,  _
]);

n = 25;


